918,369
947,448
1095,471
1101,406
761,446
482,342
625,51
396,314
381,406
441,406
463,564
681,946
980,818
847,919
996,635
708,321
629,334
385,452
627,512
802,494
414,542
452,721
491,780
681,766
586,593
695,494
761,366
891,406
1020,652
539,452
633,441
482,470
601,446
602,-97
773,121
606,880
254,189
